# SCIP version 6.0.2.4

# maximal number of restarts (-1: unlimited)
# [type: int, advanced: FALSE, range: [-1,2147483647], default: -1]
presolving/maxrestarts = 0

# frequency for calling separator <intobj> (-1: never, 0: only in root node)
# [type: int, advanced: FALSE, range: [-1,65534], default: -1]
separating/intobj/freq = 0

